db/data/3051716594111381129532155121977018951.z3.out
-------------------
2500.181205988
